(set-info :smt-lib-version 2.6)
(set-logic BV)
(set-info :source |
Generated by the tool Ultimate Automizer [1,2] which implements
an automata theoretic approach [3] to software verification.

This SMT script belongs to a set of SMT scripts that was generated by
applying Ultimate Automizer to benchmarks [4] from the SV-COMP 2023 [5,6].
This script may not contain all SMT commands that Ultimate Automizer
issued. In order to meet the restrictions for SMT-COMP benchmarks 
we dropped the commands for getting values (resp. models), 
unsatisfiable cores, and interpolants.

2023-03-21, Matthias Heizmann (heizmann@informatik.uni-freiburg.de)

[1] https://ultimate.informatik.uni-freiburg.de/automizer/
[2] Matthias Heizmann, Max Barth, Daniel Dietsch, Leonard Fichtner,
     Jochen Hoenicke, Dominik Klumpp, Mehdi Naouar, Tanja Schindler,
     Frank Schüssele, Andreas Podelski: Ultimate Automizer and the
     CommuHash Normal Form (Competition Contribution). TACAS 2023
[3] Matthias Heizmann, Jochen Hoenicke, Andreas Podelski: Software Model
     Checking for People Who Love Automata. CAV 2013
[4] https://github.com/sosy-lab/sv-benchmarks
[5] Dirk Beyer: Competition on Software Verification and
     Witness Validation: SV-COMP 2023.  TACAS 2023
[6] https://sv-comp.sosy-lab.org/2023/
|)
(set-info :license "https://creativecommons.org/licenses/by/4.0/")
(set-info :category "industrial")
(set-info :status unknown)
(declare-fun |c_ULTIMATE.start_main_~mask_SORT_1~0#1| () (_ BitVec 8))
(declare-fun |c_ULTIMATE.start_main_~state_30~0#1| () (_ BitVec 8))
(declare-fun |c_ULTIMATE.start_main_~state_34~0#1| () (_ BitVec 8))
(declare-fun |c_ULTIMATE.start_main_~state_124~0#1| () (_ BitVec 8))
(assert (forall ((|v_ULTIMATE.start_main_~var_718_arg_1~0#1_6| (_ BitVec 8)) (|v_ULTIMATE.start_main_~var_704_arg_1~0#1_6| (_ BitVec 8)) (|v_ULTIMATE.start_main_~var_715_arg_1~0#1_6| (_ BitVec 8)) (|v_ULTIMATE.start_main_~var_1007_arg_1~0#1_6| (_ BitVec 8)) (|v_ULTIMATE.start_main_~var_721_arg_1~0#1_6| (_ BitVec 8)) (|v_ULTIMATE.start_main_~var_710_arg_1~0#1_6| (_ BitVec 8)) (|v_ULTIMATE.start_main_~var_1145_arg_1~0#1_6| (_ BitVec 8)) (|v_ULTIMATE.start_main_~var_618_arg_1~0#1_6| (_ BitVec 8)) (|v_ULTIMATE.start_main_~var_613_arg_1~0#1_5| (_ BitVec 8)) (|v_ULTIMATE.start_main_~var_656_arg_1~0#1_6| (_ BitVec 8)) (|v_ULTIMATE.start_main_~var_637_arg_1~0#1_6| (_ BitVec 8)) (|v_ULTIMATE.start_main_~var_869_arg_1~0#1_7| (_ BitVec 8)) (|v_ULTIMATE.start_main_~var_679_arg_1~0#1_6| (_ BitVec 8)) (|v_ULTIMATE.start_main_~var_771_arg_1~0#1_6| (_ BitVec 8)) (|v_ULTIMATE.start_main_~var_537_arg_1~0#1_5| (_ BitVec 8)) (|v_ULTIMATE.start_main_~var_630_arg_1~0#1_6| (_ BitVec 8)) (|v_ULTIMATE.start_main_~var_633_arg_1~0#1_6| (_ BitVec 8)) (|v_ULTIMATE.start_main_~var_652_arg_1~0#1_6| (_ BitVec 8)) (|v_ULTIMATE.start_main_~var_610_arg_1~0#1_5| (_ BitVec 8)) (|v_ULTIMATE.start_main_~var_674_arg_1~0#1_6| (_ BitVec 8)) (|v_ULTIMATE.start_main_~var_697_arg_1~0#1_6| (_ BitVec 8)) (|v_ULTIMATE.start_main_~var_534_arg_1~0#1_5| (_ BitVec 8)) (|v_ULTIMATE.start_main_~var_586_arg_1~0#1_5| (_ BitVec 8)) (|v_ULTIMATE.start_main_~var_554_arg_1~0#1_5| (_ BitVec 8)) (|v_ULTIMATE.start_main_~var_564_arg_1~0#1_5| (_ BitVec 8)) (|v_ULTIMATE.start_main_~var_583_arg_1~0#1_5| (_ BitVec 8)) (|v_ULTIMATE.start_main_~var_577_arg_1~0#1_5| (_ BitVec 8)) (|v_ULTIMATE.start_main_~var_598_arg_1~0#1_5| (_ BitVec 8)) (|v_ULTIMATE.start_main_~var_551_arg_1~0#1_5| (_ BitVec 8)) (|v_ULTIMATE.start_main_~var_580_arg_1~0#1_5| (_ BitVec 8)) (|v_ULTIMATE.start_main_~var_571_arg_1~0#1_5| (_ BitVec 8)) (|v_ULTIMATE.start_main_~var_592_arg_1~0#1_5| (_ BitVec 8)) (|v_ULTIMATE.start_main_~var_557_arg_1~0#1_5| (_ BitVec 8)) (|v_ULTIMATE.start_main_~var_560_arg_1~0#1_5| (_ BitVec 8)) (|v_ULTIMATE.start_main_~var_589_arg_1~0#1_5| (_ BitVec 8)) (|v_ULTIMATE.start_main_~var_545_arg_1~0#1_5| (_ BitVec 8)) (|v_ULTIMATE.start_main_~var_567_arg_1~0#1_5| (_ BitVec 8)) (|v_ULTIMATE.start_main_~var_670_arg_1~0#1_6| (_ BitVec 8)) (|v_ULTIMATE.start_main_~var_574_arg_1~0#1_5| (_ BitVec 8)) (|v_ULTIMATE.start_main_~var_541_arg_1~0#1_5| (_ BitVec 8)) (|v_ULTIMATE.start_main_~var_626_arg_1~0#1_6| (_ BitVec 8)) (|v_ULTIMATE.start_main_~var_646_arg_1~0#1_6| (_ BitVec 8)) (|v_ULTIMATE.start_main_~var_689_arg_1~0#1_6| (_ BitVec 8)) (|v_ULTIMATE.start_main_~var_666_arg_1~0#1_6| (_ BitVec 8)) (|v_ULTIMATE.start_main_~var_602_arg_1~0#1_5| (_ BitVec 8)) (|v_ULTIMATE.start_main_~var_606_arg_1~0#1_5| (_ BitVec 8)) (|v_ULTIMATE.start_main_~var_530_arg_0~0#1_5| (_ BitVec 8)) (|ULTIMATE.start_main_~input_186~0#1| (_ BitVec 8)) (|v_ULTIMATE.start_main_~var_548_arg_1~0#1_5| (_ BitVec 8)) (|v_ULTIMATE.start_main_~var_662_arg_1~0#1_6| (_ BitVec 8)) (|v_ULTIMATE.start_main_~var_640_arg_1~0#1_6| (_ BitVec 8)) (|v_ULTIMATE.start_main_~var_622_arg_1~0#1_6| (_ BitVec 8)) (|v_ULTIMATE.start_main_~var_685_arg_1~0#1_6| (_ BitVec 8)) (|v_ULTIMATE.start_main_~var_643_arg_1~0#1_6| (_ BitVec 8)) (|v_ULTIMATE.start_main_~var_528_arg_1~0#1_5| (_ BitVec 8))) (= ((_ extract 7 0) (let ((.cse1 ((_ zero_extend 24) |c_ULTIMATE.start_main_~mask_SORT_1~0#1|))) (bvand ((_ zero_extend 24) ((_ extract 7 0) (let ((.cse0 ((_ zero_extend 24) |ULTIMATE.start_main_~input_186~0#1|))) (bvand ((_ zero_extend 24) ((_ extract 7 0) (bvor .cse0 ((_ zero_extend 24) |c_ULTIMATE.start_main_~state_34~0#1|)))) ((_ zero_extend 24) ((_ extract 7 0) (bvand .cse1 ((_ zero_extend 24) ((_ extract 7 0) (bvnot ((_ zero_extend 24) ((_ extract 7 0) (bvand ((_ zero_extend 24) ((_ extract 7 0) (bvnot ((_ zero_extend 24) ((_ extract 7 0) (bvand ((_ zero_extend 24) ((_ extract 7 0) (bvand .cse1 ((_ zero_extend 24) ((_ extract 7 0) (bvnot ((_ zero_extend 24) |c_ULTIMATE.start_main_~state_124~0#1|))))))) ((_ zero_extend 24) ((_ extract 7 0) (bvand ((_ zero_extend 24) ((_ extract 7 0) (bvand ((_ zero_extend 24) |v_ULTIMATE.start_main_~var_1007_arg_1~0#1_6|) ((_ zero_extend 24) ((_ extract 7 0) (bvand ((_ zero_extend 24) |v_ULTIMATE.start_main_~var_869_arg_1~0#1_7|) ((_ zero_extend 24) ((_ extract 7 0) (bvand ((_ zero_extend 24) ((_ extract 7 0) (bvand ((_ zero_extend 24) ((_ extract 7 0) (bvand ((_ zero_extend 24) |v_ULTIMATE.start_main_~var_718_arg_1~0#1_6|) ((_ zero_extend 24) ((_ extract 7 0) (bvand ((_ zero_extend 24) |v_ULTIMATE.start_main_~var_715_arg_1~0#1_6|) ((_ zero_extend 24) ((_ extract 7 0) (bvand ((_ zero_extend 24) ((_ extract 7 0) (bvand ((_ zero_extend 24) ((_ extract 7 0) (bvand ((_ zero_extend 24) |v_ULTIMATE.start_main_~var_697_arg_1~0#1_6|) ((_ zero_extend 24) ((_ extract 7 0) (bvand ((_ zero_extend 24) ((_ extract 7 0) (bvand ((_ zero_extend 24) |v_ULTIMATE.start_main_~var_685_arg_1~0#1_6|) ((_ zero_extend 24) ((_ extract 7 0) (bvand ((_ zero_extend 24) |v_ULTIMATE.start_main_~var_679_arg_1~0#1_6|) ((_ zero_extend 24) ((_ extract 7 0) (bvand ((_ zero_extend 24) ((_ extract 7 0) (bvand ((_ zero_extend 24) ((_ extract 7 0) (bvand ((_ zero_extend 24) |v_ULTIMATE.start_main_~var_666_arg_1~0#1_6|) ((_ zero_extend 24) ((_ extract 7 0) (bvand ((_ zero_extend 24) |v_ULTIMATE.start_main_~var_662_arg_1~0#1_6|) ((_ zero_extend 24) ((_ extract 7 0) (bvand ((_ zero_extend 24) |v_ULTIMATE.start_main_~var_656_arg_1~0#1_6|) ((_ zero_extend 24) ((_ extract 7 0) (bvand ((_ zero_extend 24) |v_ULTIMATE.start_main_~var_652_arg_1~0#1_6|) ((_ zero_extend 24) ((_ extract 7 0) (bvand ((_ zero_extend 24) |v_ULTIMATE.start_main_~var_646_arg_1~0#1_6|) ((_ zero_extend 24) ((_ extract 7 0) (bvand ((_ zero_extend 24) |v_ULTIMATE.start_main_~var_643_arg_1~0#1_6|) ((_ zero_extend 24) ((_ extract 7 0) (bvand ((_ zero_extend 24) |v_ULTIMATE.start_main_~var_640_arg_1~0#1_6|) ((_ zero_extend 24) ((_ extract 7 0) (bvand ((_ zero_extend 24) |v_ULTIMATE.start_main_~var_637_arg_1~0#1_6|) ((_ zero_extend 24) ((_ extract 7 0) (bvand ((_ zero_extend 24) |v_ULTIMATE.start_main_~var_633_arg_1~0#1_6|) ((_ zero_extend 24) ((_ extract 7 0) (bvand ((_ zero_extend 24) ((_ extract 7 0) (bvand ((_ zero_extend 24) |v_ULTIMATE.start_main_~var_626_arg_1~0#1_6|) ((_ zero_extend 24) ((_ extract 7 0) (bvand ((_ zero_extend 24) ((_ extract 7 0) (bvand ((_ zero_extend 24) |v_ULTIMATE.start_main_~var_618_arg_1~0#1_6|) ((_ zero_extend 24) ((_ extract 7 0) (bvand ((_ zero_extend 24) |v_ULTIMATE.start_main_~var_613_arg_1~0#1_5|) ((_ zero_extend 24) ((_ extract 7 0) (bvand ((_ zero_extend 24) |v_ULTIMATE.start_main_~var_610_arg_1~0#1_5|) ((_ zero_extend 24) ((_ extract 7 0) (bvand ((_ zero_extend 24) ((_ extract 7 0) (bvand ((_ zero_extend 24) |v_ULTIMATE.start_main_~var_602_arg_1~0#1_5|) ((_ zero_extend 24) ((_ extract 7 0) (bvand ((_ zero_extend 24) |v_ULTIMATE.start_main_~var_598_arg_1~0#1_5|) ((_ zero_extend 24) ((_ extract 7 0) (bvand ((_ zero_extend 24) |v_ULTIMATE.start_main_~var_592_arg_1~0#1_5|) ((_ zero_extend 24) ((_ extract 7 0) (bvand ((_ zero_extend 24) |v_ULTIMATE.start_main_~var_589_arg_1~0#1_5|) ((_ zero_extend 24) ((_ extract 7 0) (bvand ((_ zero_extend 24) ((_ extract 7 0) (bvand ((_ zero_extend 24) ((_ extract 7 0) (bvand ((_ zero_extend 24) ((_ extract 7 0) (bvand ((_ zero_extend 24) ((_ extract 7 0) (bvand ((_ zero_extend 24) ((_ extract 7 0) (bvand ((_ zero_extend 24) ((_ extract 7 0) (bvand ((_ zero_extend 24) |v_ULTIMATE.start_main_~var_567_arg_1~0#1_5|) ((_ zero_extend 24) ((_ extract 7 0) (bvand ((_ zero_extend 24) ((_ extract 7 0) (bvand ((_ zero_extend 24) ((_ extract 7 0) (bvand ((_ zero_extend 24) ((_ extract 7 0) (bvand ((_ zero_extend 24) ((_ extract 7 0) (bvand ((_ zero_extend 24) ((_ extract 7 0) (bvand ((_ zero_extend 24) ((_ extract 7 0) (bvand ((_ zero_extend 24) |v_ULTIMATE.start_main_~var_545_arg_1~0#1_5|) ((_ zero_extend 24) ((_ extract 7 0) (bvand ((_ zero_extend 24) ((_ extract 7 0) (bvand ((_ zero_extend 24) ((_ extract 7 0) (bvand ((_ zero_extend 24) ((_ extract 7 0) (bvand ((_ zero_extend 24) ((_ extract 7 0) (bvor ((_ zero_extend 24) ((_ extract 7 0) (bvand ((_ zero_extend 24) |c_ULTIMATE.start_main_~state_30~0#1|) ((_ zero_extend 24) |v_ULTIMATE.start_main_~var_528_arg_1~0#1_5|)))) ((_ zero_extend 24) ((_ extract 7 0) (bvand .cse1 ((_ zero_extend 24) ((_ extract 7 0) (bvnot .cse0))))))))) ((_ zero_extend 24) |v_ULTIMATE.start_main_~var_530_arg_0~0#1_5|)))) ((_ zero_extend 24) |v_ULTIMATE.start_main_~var_534_arg_1~0#1_5|)))) ((_ zero_extend 24) |v_ULTIMATE.start_main_~var_537_arg_1~0#1_5|)))) ((_ zero_extend 24) |v_ULTIMATE.start_main_~var_541_arg_1~0#1_5|))))))) ((_ zero_extend 24) |v_ULTIMATE.start_main_~var_548_arg_1~0#1_5|)))) ((_ zero_extend 24) |v_ULTIMATE.start_main_~var_551_arg_1~0#1_5|)))) ((_ zero_extend 24) |v_ULTIMATE.start_main_~var_554_arg_1~0#1_5|)))) ((_ zero_extend 24) |v_ULTIMATE.start_main_~var_557_arg_1~0#1_5|)))) ((_ zero_extend 24) |v_ULTIMATE.start_main_~var_560_arg_1~0#1_5|)))) ((_ zero_extend 24) |v_ULTIMATE.start_main_~var_564_arg_1~0#1_5|))))))) ((_ zero_extend 24) |v_ULTIMATE.start_main_~var_571_arg_1~0#1_5|)))) ((_ zero_extend 24) |v_ULTIMATE.start_main_~var_574_arg_1~0#1_5|)))) ((_ zero_extend 24) |v_ULTIMATE.start_main_~var_577_arg_1~0#1_5|)))) ((_ zero_extend 24) |v_ULTIMATE.start_main_~var_580_arg_1~0#1_5|)))) ((_ zero_extend 24) |v_ULTIMATE.start_main_~var_583_arg_1~0#1_5|)))) ((_ zero_extend 24) |v_ULTIMATE.start_main_~var_586_arg_1~0#1_5|)))))))))))))))) ((_ zero_extend 24) |v_ULTIMATE.start_main_~var_606_arg_1~0#1_5|))))))))))))) ((_ zero_extend 24) |v_ULTIMATE.start_main_~var_622_arg_1~0#1_6|))))))) ((_ zero_extend 24) |v_ULTIMATE.start_main_~var_630_arg_1~0#1_6|))))))))))))))))))))))))))))))) ((_ zero_extend 24) |v_ULTIMATE.start_main_~var_670_arg_1~0#1_6|)))) ((_ zero_extend 24) |v_ULTIMATE.start_main_~var_674_arg_1~0#1_6|)))))))))) ((_ zero_extend 24) |v_ULTIMATE.start_main_~var_689_arg_1~0#1_6|))))))) ((_ zero_extend 24) |v_ULTIMATE.start_main_~var_704_arg_1~0#1_6|)))) ((_ zero_extend 24) |v_ULTIMATE.start_main_~var_710_arg_1~0#1_6|)))))))))) ((_ zero_extend 24) |v_ULTIMATE.start_main_~var_721_arg_1~0#1_6|)))) ((_ zero_extend 24) |v_ULTIMATE.start_main_~var_771_arg_1~0#1_6|)))))))))) ((_ zero_extend 24) |v_ULTIMATE.start_main_~var_1145_arg_1~0#1_6|)))))))))) .cse1))))))))))))) .cse1))) (_ bv0 8))))
(assert (not (forall ((|ULTIMATE.start_main_~state_34~0#1| (_ BitVec 8))) (let ((.cse0 ((_ zero_extend 24) |c_ULTIMATE.start_main_~mask_SORT_1~0#1|))) (let ((.cse1 ((_ zero_extend 24) ((_ extract 7 0) (bvand .cse0 ((_ zero_extend 24) ((_ extract 7 0) (bvnot ((_ zero_extend 24) |c_ULTIMATE.start_main_~state_124~0#1|)))))))) (.cse3 ((_ zero_extend 24) |ULTIMATE.start_main_~state_34~0#1|))) (or (forall ((|v_ULTIMATE.start_main_~var_718_arg_1~0#1_6| (_ BitVec 8)) (|v_ULTIMATE.start_main_~var_704_arg_1~0#1_6| (_ BitVec 8)) (|v_ULTIMATE.start_main_~var_715_arg_1~0#1_6| (_ BitVec 8)) (|v_ULTIMATE.start_main_~var_1007_arg_1~0#1_6| (_ BitVec 8)) (|v_ULTIMATE.start_main_~var_721_arg_1~0#1_6| (_ BitVec 8)) (|v_ULTIMATE.start_main_~var_710_arg_1~0#1_6| (_ BitVec 8)) (|v_ULTIMATE.start_main_~var_1145_arg_1~0#1_6| (_ BitVec 8)) (|v_ULTIMATE.start_main_~var_618_arg_1~0#1_6| (_ BitVec 8)) (|v_ULTIMATE.start_main_~var_613_arg_1~0#1_5| (_ BitVec 8)) (|v_ULTIMATE.start_main_~var_656_arg_1~0#1_6| (_ BitVec 8)) (|v_ULTIMATE.start_main_~var_637_arg_1~0#1_6| (_ BitVec 8)) (|v_ULTIMATE.start_main_~var_869_arg_1~0#1_7| (_ BitVec 8)) (|v_ULTIMATE.start_main_~var_679_arg_1~0#1_6| (_ BitVec 8)) (|v_ULTIMATE.start_main_~var_771_arg_1~0#1_6| (_ BitVec 8)) (|v_ULTIMATE.start_main_~var_537_arg_1~0#1_5| (_ BitVec 8)) (|v_ULTIMATE.start_main_~var_630_arg_1~0#1_6| (_ BitVec 8)) (|v_ULTIMATE.start_main_~var_633_arg_1~0#1_6| (_ BitVec 8)) (|v_ULTIMATE.start_main_~var_652_arg_1~0#1_6| (_ BitVec 8)) (|v_ULTIMATE.start_main_~var_610_arg_1~0#1_5| (_ BitVec 8)) (|v_ULTIMATE.start_main_~var_674_arg_1~0#1_6| (_ BitVec 8)) (|v_ULTIMATE.start_main_~var_697_arg_1~0#1_6| (_ BitVec 8)) (|v_ULTIMATE.start_main_~var_534_arg_1~0#1_5| (_ BitVec 8)) (|v_ULTIMATE.start_main_~var_586_arg_1~0#1_5| (_ BitVec 8)) (|v_ULTIMATE.start_main_~var_554_arg_1~0#1_5| (_ BitVec 8)) (|v_ULTIMATE.start_main_~var_564_arg_1~0#1_5| (_ BitVec 8)) (|v_ULTIMATE.start_main_~var_583_arg_1~0#1_5| (_ BitVec 8)) (|v_ULTIMATE.start_main_~var_577_arg_1~0#1_5| (_ BitVec 8)) (|v_ULTIMATE.start_main_~var_598_arg_1~0#1_5| (_ BitVec 8)) (|v_ULTIMATE.start_main_~var_551_arg_1~0#1_5| (_ BitVec 8)) (|v_ULTIMATE.start_main_~var_580_arg_1~0#1_5| (_ BitVec 8)) (|v_ULTIMATE.start_main_~var_571_arg_1~0#1_5| (_ BitVec 8)) (|v_ULTIMATE.start_main_~var_592_arg_1~0#1_5| (_ BitVec 8)) (|v_ULTIMATE.start_main_~var_557_arg_1~0#1_5| (_ BitVec 8)) (|v_ULTIMATE.start_main_~var_560_arg_1~0#1_5| (_ BitVec 8)) (|v_ULTIMATE.start_main_~var_589_arg_1~0#1_5| (_ BitVec 8)) (|v_ULTIMATE.start_main_~var_545_arg_1~0#1_5| (_ BitVec 8)) (|v_ULTIMATE.start_main_~var_567_arg_1~0#1_5| (_ BitVec 8)) (|v_ULTIMATE.start_main_~var_670_arg_1~0#1_6| (_ BitVec 8)) (|v_ULTIMATE.start_main_~var_574_arg_1~0#1_5| (_ BitVec 8)) (|v_ULTIMATE.start_main_~var_541_arg_1~0#1_5| (_ BitVec 8)) (|v_ULTIMATE.start_main_~var_626_arg_1~0#1_6| (_ BitVec 8)) (|v_ULTIMATE.start_main_~var_646_arg_1~0#1_6| (_ BitVec 8)) (|v_ULTIMATE.start_main_~var_689_arg_1~0#1_6| (_ BitVec 8)) (|v_ULTIMATE.start_main_~var_666_arg_1~0#1_6| (_ BitVec 8)) (|v_ULTIMATE.start_main_~var_602_arg_1~0#1_5| (_ BitVec 8)) (|v_ULTIMATE.start_main_~var_606_arg_1~0#1_5| (_ BitVec 8)) (|v_ULTIMATE.start_main_~var_530_arg_0~0#1_5| (_ BitVec 8)) (|ULTIMATE.start_main_~input_186~0#1| (_ BitVec 8)) (|v_ULTIMATE.start_main_~var_548_arg_1~0#1_5| (_ BitVec 8)) (|v_ULTIMATE.start_main_~var_662_arg_1~0#1_6| (_ BitVec 8)) (|v_ULTIMATE.start_main_~var_640_arg_1~0#1_6| (_ BitVec 8)) (|v_ULTIMATE.start_main_~var_622_arg_1~0#1_6| (_ BitVec 8)) (|v_ULTIMATE.start_main_~var_685_arg_1~0#1_6| (_ BitVec 8)) (|v_ULTIMATE.start_main_~var_643_arg_1~0#1_6| (_ BitVec 8)) (|v_ULTIMATE.start_main_~var_528_arg_1~0#1_5| (_ BitVec 8))) (= ((_ extract 7 0) (bvand .cse0 ((_ zero_extend 24) ((_ extract 7 0) (let ((.cse2 ((_ zero_extend 24) |ULTIMATE.start_main_~input_186~0#1|))) (bvand ((_ zero_extend 24) ((_ extract 7 0) (bvand .cse0 ((_ zero_extend 24) ((_ extract 7 0) (bvnot ((_ zero_extend 24) ((_ extract 7 0) (bvand ((_ zero_extend 24) ((_ extract 7 0) (bvnot ((_ zero_extend 24) ((_ extract 7 0) (bvand .cse1 ((_ zero_extend 24) ((_ extract 7 0) (bvand ((_ zero_extend 24) ((_ extract 7 0) (bvand ((_ zero_extend 24) |v_ULTIMATE.start_main_~var_1007_arg_1~0#1_6|) ((_ zero_extend 24) ((_ extract 7 0) (bvand ((_ zero_extend 24) |v_ULTIMATE.start_main_~var_869_arg_1~0#1_7|) ((_ zero_extend 24) ((_ extract 7 0) (bvand ((_ zero_extend 24) ((_ extract 7 0) (bvand ((_ zero_extend 24) ((_ extract 7 0) (bvand ((_ zero_extend 24) |v_ULTIMATE.start_main_~var_718_arg_1~0#1_6|) ((_ zero_extend 24) ((_ extract 7 0) (bvand ((_ zero_extend 24) |v_ULTIMATE.start_main_~var_715_arg_1~0#1_6|) ((_ zero_extend 24) ((_ extract 7 0) (bvand ((_ zero_extend 24) ((_ extract 7 0) (bvand ((_ zero_extend 24) ((_ extract 7 0) (bvand ((_ zero_extend 24) |v_ULTIMATE.start_main_~var_697_arg_1~0#1_6|) ((_ zero_extend 24) ((_ extract 7 0) (bvand ((_ zero_extend 24) ((_ extract 7 0) (bvand ((_ zero_extend 24) |v_ULTIMATE.start_main_~var_685_arg_1~0#1_6|) ((_ zero_extend 24) ((_ extract 7 0) (bvand ((_ zero_extend 24) |v_ULTIMATE.start_main_~var_679_arg_1~0#1_6|) ((_ zero_extend 24) ((_ extract 7 0) (bvand ((_ zero_extend 24) ((_ extract 7 0) (bvand ((_ zero_extend 24) ((_ extract 7 0) (bvand ((_ zero_extend 24) |v_ULTIMATE.start_main_~var_666_arg_1~0#1_6|) ((_ zero_extend 24) ((_ extract 7 0) (bvand ((_ zero_extend 24) |v_ULTIMATE.start_main_~var_662_arg_1~0#1_6|) ((_ zero_extend 24) ((_ extract 7 0) (bvand ((_ zero_extend 24) |v_ULTIMATE.start_main_~var_656_arg_1~0#1_6|) ((_ zero_extend 24) ((_ extract 7 0) (bvand ((_ zero_extend 24) |v_ULTIMATE.start_main_~var_652_arg_1~0#1_6|) ((_ zero_extend 24) ((_ extract 7 0) (bvand ((_ zero_extend 24) |v_ULTIMATE.start_main_~var_646_arg_1~0#1_6|) ((_ zero_extend 24) ((_ extract 7 0) (bvand ((_ zero_extend 24) |v_ULTIMATE.start_main_~var_643_arg_1~0#1_6|) ((_ zero_extend 24) ((_ extract 7 0) (bvand ((_ zero_extend 24) |v_ULTIMATE.start_main_~var_640_arg_1~0#1_6|) ((_ zero_extend 24) ((_ extract 7 0) (bvand ((_ zero_extend 24) |v_ULTIMATE.start_main_~var_637_arg_1~0#1_6|) ((_ zero_extend 24) ((_ extract 7 0) (bvand ((_ zero_extend 24) |v_ULTIMATE.start_main_~var_633_arg_1~0#1_6|) ((_ zero_extend 24) ((_ extract 7 0) (bvand ((_ zero_extend 24) ((_ extract 7 0) (bvand ((_ zero_extend 24) |v_ULTIMATE.start_main_~var_626_arg_1~0#1_6|) ((_ zero_extend 24) ((_ extract 7 0) (bvand ((_ zero_extend 24) ((_ extract 7 0) (bvand ((_ zero_extend 24) |v_ULTIMATE.start_main_~var_618_arg_1~0#1_6|) ((_ zero_extend 24) ((_ extract 7 0) (bvand ((_ zero_extend 24) |v_ULTIMATE.start_main_~var_613_arg_1~0#1_5|) ((_ zero_extend 24) ((_ extract 7 0) (bvand ((_ zero_extend 24) |v_ULTIMATE.start_main_~var_610_arg_1~0#1_5|) ((_ zero_extend 24) ((_ extract 7 0) (bvand ((_ zero_extend 24) ((_ extract 7 0) (bvand ((_ zero_extend 24) |v_ULTIMATE.start_main_~var_602_arg_1~0#1_5|) ((_ zero_extend 24) ((_ extract 7 0) (bvand ((_ zero_extend 24) |v_ULTIMATE.start_main_~var_598_arg_1~0#1_5|) ((_ zero_extend 24) ((_ extract 7 0) (bvand ((_ zero_extend 24) |v_ULTIMATE.start_main_~var_592_arg_1~0#1_5|) ((_ zero_extend 24) ((_ extract 7 0) (bvand ((_ zero_extend 24) |v_ULTIMATE.start_main_~var_589_arg_1~0#1_5|) ((_ zero_extend 24) ((_ extract 7 0) (bvand ((_ zero_extend 24) ((_ extract 7 0) (bvand ((_ zero_extend 24) ((_ extract 7 0) (bvand ((_ zero_extend 24) ((_ extract 7 0) (bvand ((_ zero_extend 24) ((_ extract 7 0) (bvand ((_ zero_extend 24) ((_ extract 7 0) (bvand ((_ zero_extend 24) ((_ extract 7 0) (bvand ((_ zero_extend 24) |v_ULTIMATE.start_main_~var_567_arg_1~0#1_5|) ((_ zero_extend 24) ((_ extract 7 0) (bvand ((_ zero_extend 24) ((_ extract 7 0) (bvand ((_ zero_extend 24) ((_ extract 7 0) (bvand ((_ zero_extend 24) ((_ extract 7 0) (bvand ((_ zero_extend 24) ((_ extract 7 0) (bvand ((_ zero_extend 24) ((_ extract 7 0) (bvand ((_ zero_extend 24) ((_ extract 7 0) (bvand ((_ zero_extend 24) |v_ULTIMATE.start_main_~var_545_arg_1~0#1_5|) ((_ zero_extend 24) ((_ extract 7 0) (bvand ((_ zero_extend 24) ((_ extract 7 0) (bvand ((_ zero_extend 24) ((_ extract 7 0) (bvand ((_ zero_extend 24) ((_ extract 7 0) (bvand ((_ zero_extend 24) ((_ extract 7 0) (bvor ((_ zero_extend 24) ((_ extract 7 0) (bvand ((_ zero_extend 24) |c_ULTIMATE.start_main_~state_30~0#1|) ((_ zero_extend 24) |v_ULTIMATE.start_main_~var_528_arg_1~0#1_5|)))) ((_ zero_extend 24) ((_ extract 7 0) (bvand .cse0 ((_ zero_extend 24) ((_ extract 7 0) (bvnot .cse2))))))))) ((_ zero_extend 24) |v_ULTIMATE.start_main_~var_530_arg_0~0#1_5|)))) ((_ zero_extend 24) |v_ULTIMATE.start_main_~var_534_arg_1~0#1_5|)))) ((_ zero_extend 24) |v_ULTIMATE.start_main_~var_537_arg_1~0#1_5|)))) ((_ zero_extend 24) |v_ULTIMATE.start_main_~var_541_arg_1~0#1_5|))))))) ((_ zero_extend 24) |v_ULTIMATE.start_main_~var_548_arg_1~0#1_5|)))) ((_ zero_extend 24) |v_ULTIMATE.start_main_~var_551_arg_1~0#1_5|)))) ((_ zero_extend 24) |v_ULTIMATE.start_main_~var_554_arg_1~0#1_5|)))) ((_ zero_extend 24) |v_ULTIMATE.start_main_~var_557_arg_1~0#1_5|)))) ((_ zero_extend 24) |v_ULTIMATE.start_main_~var_560_arg_1~0#1_5|)))) ((_ zero_extend 24) |v_ULTIMATE.start_main_~var_564_arg_1~0#1_5|))))))) ((_ zero_extend 24) |v_ULTIMATE.start_main_~var_571_arg_1~0#1_5|)))) ((_ zero_extend 24) |v_ULTIMATE.start_main_~var_574_arg_1~0#1_5|)))) ((_ zero_extend 24) |v_ULTIMATE.start_main_~var_577_arg_1~0#1_5|)))) ((_ zero_extend 24) |v_ULTIMATE.start_main_~var_580_arg_1~0#1_5|)))) ((_ zero_extend 24) |v_ULTIMATE.start_main_~var_583_arg_1~0#1_5|)))) ((_ zero_extend 24) |v_ULTIMATE.start_main_~var_586_arg_1~0#1_5|)))))))))))))))) ((_ zero_extend 24) |v_ULTIMATE.start_main_~var_606_arg_1~0#1_5|))))))))))))) ((_ zero_extend 24) |v_ULTIMATE.start_main_~var_622_arg_1~0#1_6|))))))) ((_ zero_extend 24) |v_ULTIMATE.start_main_~var_630_arg_1~0#1_6|))))))))))))))))))))))))))))))) ((_ zero_extend 24) |v_ULTIMATE.start_main_~var_670_arg_1~0#1_6|)))) ((_ zero_extend 24) |v_ULTIMATE.start_main_~var_674_arg_1~0#1_6|)))))))))) ((_ zero_extend 24) |v_ULTIMATE.start_main_~var_689_arg_1~0#1_6|))))))) ((_ zero_extend 24) |v_ULTIMATE.start_main_~var_704_arg_1~0#1_6|)))) ((_ zero_extend 24) |v_ULTIMATE.start_main_~var_710_arg_1~0#1_6|)))))))))) ((_ zero_extend 24) |v_ULTIMATE.start_main_~var_721_arg_1~0#1_6|)))) ((_ zero_extend 24) |v_ULTIMATE.start_main_~var_771_arg_1~0#1_6|)))))))))) ((_ zero_extend 24) |v_ULTIMATE.start_main_~var_1145_arg_1~0#1_6|)))))))))) .cse0))))))))) ((_ zero_extend 24) ((_ extract 7 0) (bvor .cse2 .cse3))))))))) (_ bv0 8))) (not (= ((_ extract 7 0) (bvand .cse0 ((_ zero_extend 24) ((_ extract 7 0) (bvand .cse1 .cse3))))) (_ bv0 8)))))))))
(check-sat)
(exit)
